#pLT is two-dimensional [i,r]=[component, individual]
#[i,*] means all data in row i.

param pLT := 
[1,*]
1  0    2  6    3  6    4  4    5  6    6  6    

[2,*]
1  2    2  4    3  3    4  5    5  5    6  5    
;